p cnf 15 72
-1 -4 0
-1 -7 0
-1 -10 0
-1 -13 0
-4 -7 0
-4 -10 0
-4 -13 0
-7 -10 0
-7 -13 0
-10 -13 0
-2 -5 0
-2 -8 0
-2 -11 0
-2 -14 0
-5 -8 0
-5 -11 0
-5 -14 0
-8 -11 0
-8 -14 0
-11 -14 0
-3 -6 0
-3 -9 0
-3 -12 0
-3 -15 0
-6 -9 0
-6 -12 0
-6 -15 0
-9 -12 0
-9 -15 0
-12 -15 0
-1 -2 0
-1 -3 0
-2 -3 0
-4 -5 0
-4 -6 0
-5 -6 0
-7 -8 0
-7 -9 0
-8 -9 0
-10 -11 0
-10 -12 0
-11 -12 0
-13 -14 0
-13 -15 0
-14 -15 0
1 4 7 10 13 0
2 5 8 11 14 0
3 6 9 12 15 0
-1 -8 0
-1 -14 0
-4 -11 0
-4 -14 0
-7 -2 0
-10 -5 0
-13 -2 0
-13 -5 0
-1 -9 0
-1 -15 0
-4 -12 0
-4 -15 0
-7 -3 0
-10 -6 0
-13 -3 0
-13 -6 0
-2 -9 0
-2 -15 0
-5 -12 0
-5 -15 0
-8 -3 0
-11 -6 0
-14 -3 0
-14 -6 0
